






























































82 96 
102 114 
67 113 
107 77 66 
21 31 
13 48 
112 95 
45 24 111 
7 29 
50 27 
18 43 
40 93 
26 17 20 
60 75 
72 25 
84 9 
12 15 
57 42 
101 8 
22 46 109 
94 81 47 
85 76 
68 100 
86 2 105 
78 74 
61 110 
11 56 
87 49 
55 71 
106 88 44 
14 65 
69 92 53 
91 30 83 
39 58 
89 90 
28 32 
73 99 19 
0 54 38 
1 51 

59 63 
103 64 
104 33 
23 37 70 
41 62 
3 108 
10 79 
80 6 
52 5 
36 35 
98 4 
97 16 34 
